p edge 708 1416
e 1 297
e 1 298
e 1 273
e 1 274
e 1 309
e 1 310
e 1 477
e 1 478
e 2 299
e 2 300
e 2 275
e 2 276
e 2 311
e 2 312
e 2 479
e 2 480
e 3 425
e 3 426
e 3 537
e 3 538
e 3 637
e 3 638
e 4 427
e 4 428
e 4 539
e 4 540
e 4 639
e 4 640
e 5 673
e 5 674
e 5 485
e 5 486
e 5 557
e 5 558
e 5 633
e 5 634
e 6 675
e 6 676
e 6 487
e 6 488
e 6 559
e 6 560
e 6 635
e 6 636
e 7 577
e 7 578
e 7 369
e 7 370
e 7 469
e 7 278
e 7 277
e 7 470
e 8 579
e 8 580
e 8 279
e 8 280
e 8 371
e 8 372
e 8 471
e 8 472
e 9 261
e 9 262
e 9 237
e 9 238
e 9 693
e 9 694
e 9 677
e 9 413
e 9 414
e 9 678
e 10 679
e 10 263
e 10 264
e 10 680
e 10 239
e 10 240
e 10 695
e 10 696
e 10 415
e 10 416
e 11 417
e 11 418
e 11 669
e 11 670
e 12 419
e 12 420
e 12 671
e 12 672
e 13 593
e 13 594
e 13 237
e 13 239
e 14 595
e 14 596
e 14 238
e 14 240
e 15 265
e 15 266
e 15 657
e 15 658
e 16 267
e 16 268
e 16 660
e 16 659
e 17 357
e 17 358
e 17 521
e 17 522
e 17 373
e 17 438
e 17 437
e 17 374
e 18 524
e 18 375
e 18 359
e 18 360
e 18 523
e 18 376
e 18 439
e 18 440
e 19 321
e 19 322
e 19 389
e 19 390
e 19 601
e 19 465
e 19 466
e 19 405
e 19 406
e 19 602
e 19 313
e 19 314
e 20 323
e 20 324
e 20 391
e 20 392
e 20 604
e 20 467
e 20 468
e 20 407
e 20 408
e 20 315
e 20 316
e 20 603
e 21 705
e 21 706
e 21 661
e 21 566
e 21 565
e 21 662
e 22 707
e 22 708
e 22 567
e 22 568
e 22 663
e 22 664
e 23 385
e 23 386
e 23 325
e 23 326
e 23 397
e 23 398
e 23 305
e 23 306
e 23 595
e 23 593
e 24 387
e 24 388
e 24 327
e 24 328
e 24 399
e 24 400
e 24 594
e 24 307
e 24 308
e 24 596
e 25 585
e 25 586
e 25 637
e 25 639
e 26 587
e 26 588
e 26 638
e 26 640
e 27 629
e 27 589
e 27 590
e 27 630
e 28 632
e 28 631
e 28 591
e 28 592
e 29 649
e 29 650
e 29 697
e 29 698
e 29 381
e 29 382
e 30 651
e 30 652
e 30 699
e 30 700
e 30 383
e 30 384
e 31 625
e 31 626
e 31 529
e 31 530
e 31 277
e 31 279
e 32 531
e 32 532
e 32 627
e 32 628
e 32 278
e 32 280
e 33 653
e 33 485
e 33 614
e 33 487
e 33 361
e 33 362
e 33 429
e 33 430
e 33 654
e 33 689
e 33 690
e 33 533
e 33 534
e 33 613
e 34 486
e 34 615
e 34 488
e 34 363
e 34 364
e 34 431
e 34 432
e 34 691
e 34 692
e 34 655
e 34 535
e 34 536
e 34 616
e 34 656
e 35 285
e 35 286
e 36 287
e 36 288
e 37 409
e 37 410
e 37 707
e 37 705
e 38 706
e 38 411
e 38 412
e 38 708
e 39 609
e 39 610
e 39 585
e 39 587
e 39 605
e 39 606
e 40 611
e 40 612
e 40 586
e 40 588
e 40 607
e 40 608
e 41 389
e 41 357
e 41 391
e 41 359
e 42 390
e 42 392
e 42 358
e 42 360
e 43 549
e 43 550
e 43 457
e 43 458
e 43 529
e 43 531
e 43 249
e 43 250
e 44 551
e 44 552
e 44 459
e 44 460
e 44 530
e 44 532
e 44 251
e 44 252
e 45 609
e 45 611
e 45 645
e 45 646
e 45 457
e 45 589
e 45 459
e 45 557
e 45 559
e 45 561
e 45 562
e 45 533
e 45 591
e 45 535
e 46 610
e 46 612
e 46 647
e 46 648
e 46 458
e 46 460
e 46 558
e 46 560
e 46 563
e 46 564
e 46 534
e 46 536
e 46 592
e 46 590
e 47 485
e 47 488
e 47 681
e 47 682
e 47 273
e 47 275
e 47 629
e 47 631
e 48 486
e 48 487
e 48 683
e 48 684
e 48 274
e 48 276
e 48 630
e 48 632
e 49 353
e 49 354
e 50 355
e 50 356
e 51 517
e 51 518
e 52 519
e 52 520
e 53 449
e 53 450
e 53 357
e 53 360
e 53 553
e 53 554
e 53 685
e 53 686
e 54 451
e 54 452
e 54 358
e 54 359
e 54 555
e 54 556
e 54 687
e 54 688
e 55 393
e 55 394
e 56 395
e 56 396
e 57 321
e 57 323
e 57 425
e 57 427
e 57 401
e 57 402
e 57 245
e 57 246
e 57 473
e 57 474
e 58 322
e 58 324
e 58 426
e 58 428
e 58 403
e 58 404
e 58 247
e 58 248
e 58 475
e 58 476
e 59 489
e 59 490
e 59 523
e 59 461
e 59 462
e 59 521
e 59 413
e 59 415
e 60 524
e 60 522
e 60 491
e 60 492
e 60 463
e 60 464
e 60 414
e 60 416
e 61 513
e 61 514
e 61 546
e 61 545
e 61 317
e 61 318
e 62 515
e 62 548
e 62 547
e 62 516
e 62 319
e 62 320
e 63 257
e 63 258
e 63 645
e 63 647
e 63 457
e 63 460
e 63 625
e 63 627
e 63 573
e 63 574
e 64 259
e 64 260
e 64 646
e 64 648
e 64 458
e 64 459
e 64 626
e 64 628
e 64 575
e 64 576
e 65 697
e 65 699
e 65 437
e 65 439
e 66 698
e 66 700
e 66 438
e 66 440
e 67 481
e 67 482
e 67 421
e 67 422
e 67 498
e 67 553
e 67 555
e 67 365
e 67 366
e 67 629
e 67 337
e 67 338
e 67 373
e 67 497
e 67 375
e 67 632
e 67 377
e 67 378
e 67 477
e 67 479
e 68 483
e 68 484
e 68 423
e 68 424
e 68 630
e 68 554
e 68 556
e 68 500
e 68 499
e 68 367
e 68 368
e 68 339
e 68 340
e 68 374
e 68 631
e 68 376
e 68 379
e 68 380
e 68 478
e 68 480
e 69 649
e 69 651
e 70 650
e 70 652
e 71 381
e 71 537
e 71 539
e 71 509
e 71 510
e 71 383
e 72 384
e 72 538
e 72 540
e 72 382
e 72 511
e 72 512
e 73 449
e 73 451
e 74 450
e 74 452
e 75 293
e 75 294
e 75 615
e 75 521
e 75 524
e 75 465
e 75 467
e 75 613
e 75 701
e 75 702
e 76 614
e 76 295
e 76 296
e 76 522
e 76 523
e 76 616
e 76 466
e 76 468
e 76 703
e 76 704
e 77 373
e 77 376
e 78 374
e 78 375
e 79 557
e 79 560
e 79 597
e 79 598
e 79 701
e 79 703
e 80 558
e 80 559
e 80 599
e 80 600
e 80 702
e 80 704
e 81 501
e 81 502
e 81 311
e 81 309
e 81 669
e 81 671
e 82 312
e 82 310
e 82 503
e 82 504
e 82 670
e 82 672
e 83 301
e 83 493
e 83 302
e 83 494
e 83 541
e 83 542
e 84 495
e 84 496
e 84 303
e 84 304
e 84 543
e 84 544
e 85 353
e 85 355
e 85 329
e 85 330
e 85 649
e 85 652
e 85 241
e 85 242
e 85 437
e 85 440
e 86 354
e 86 356
e 86 650
e 86 331
e 86 332
e 86 243
e 86 244
e 86 438
e 86 439
e 86 651
e 87 621
e 87 301
e 87 622
e 87 303
e 87 569
e 87 570
e 88 302
e 88 623
e 88 624
e 88 304
e 88 571
e 88 572
e 89 445
e 89 565
e 89 567
e 89 669
e 89 446
e 89 672
e 90 447
e 90 566
e 90 568
e 90 670
e 90 671
e 90 448
e 91 577
e 91 579
e 91 265
e 91 267
e 91 509
e 91 511
e 92 578
e 92 580
e 92 266
e 92 268
e 92 510
e 92 512
e 93 529
e 93 532
e 93 633
e 93 635
e 93 413
e 93 416
e 94 530
e 94 531
e 94 634
e 94 636
e 94 414
e 94 415
e 95 333
e 95 334
e 96 335
e 96 336
e 97 289
e 97 290
e 97 433
e 97 434
e 97 691
e 97 665
e 97 666
e 97 689
e 98 291
e 98 292
e 98 690
e 98 435
e 98 436
e 98 692
e 98 667
e 98 668
e 99 497
e 99 499
e 99 533
e 99 247
e 99 536
e 99 245
e 100 498
e 100 500
e 100 534
e 100 535
e 100 248
e 100 246
e 101 397
e 101 399
e 101 593
e 101 345
e 101 596
e 101 313
e 101 346
e 101 315
e 102 316
e 102 398
e 102 400
e 102 594
e 102 595
e 102 314
e 102 347
e 102 348
e 103 281
e 103 282
e 103 261
e 103 263
e 104 283
e 104 284
e 104 262
e 104 264
e 105 441
e 105 442
e 105 429
e 105 431
e 106 443
e 106 444
e 106 430
e 106 432
e 107 525
e 107 526
e 107 657
e 107 659
e 107 381
e 107 384
e 108 527
e 108 528
e 108 658
e 108 660
e 108 382
e 108 383
e 109 401
e 109 403
e 110 402
e 110 404
e 111 489
e 111 491
e 111 653
e 111 655
e 111 433
e 111 435
e 111 505
e 111 506
e 111 605
e 111 607
e 112 490
e 112 492
e 112 654
e 112 656
e 112 434
e 112 436
e 112 507
e 112 508
e 112 606
e 112 608
e 113 665
e 113 667
e 114 666
e 114 668
e 115 513
e 115 515
e 115 453
e 115 454
e 115 621
e 115 623
e 116 514
e 116 516
e 116 455
e 116 456
e 116 622
e 116 624
e 117 585
e 117 588
e 117 429
e 117 432
e 117 241
e 117 243
e 118 586
e 118 587
e 118 430
e 118 431
e 118 242
e 118 244
e 119 461
e 119 269
e 119 270
e 119 463
e 120 464
e 120 462
e 120 271
e 120 272
e 121 257
e 121 481
e 121 259
e 121 483
e 121 401
e 121 404
e 121 345
e 121 347
e 122 258
e 122 260
e 122 482
e 122 402
e 122 403
e 122 484
e 122 346
e 122 348
e 123 489
e 123 253
e 123 492
e 123 317
e 123 254
e 123 319
e 124 490
e 124 491
e 124 256
e 124 318
e 124 255
e 124 320
e 125 305
e 125 307
e 125 309
e 125 342
e 125 312
e 125 281
e 125 341
e 125 283
e 126 343
e 126 306
e 126 308
e 126 310
e 126 311
e 126 344
e 126 282
e 126 284
e 127 637
e 127 617
e 127 618
e 127 683
e 127 681
e 127 541
e 127 543
e 127 640
e 128 684
e 128 682
e 128 619
e 128 620
e 128 542
e 128 638
e 128 639
e 128 544
e 129 253
e 129 255
e 130 254
e 130 256
e 131 337
e 131 339
e 131 285
e 131 287
e 132 338
e 132 340
e 132 286
e 132 288
e 133 549
e 133 469
e 133 551
e 133 471
e 134 550
e 134 552
e 134 470
e 134 472
e 135 385
e 135 705
e 135 387
e 135 708
e 136 386
e 136 707
e 136 388
e 136 706
e 137 345
e 137 449
e 137 348
e 137 452
e 138 346
e 138 347
e 138 451
e 138 450
e 139 581
e 139 582
e 139 679
e 139 677
e 139 477
e 139 480
e 140 678
e 140 583
e 140 680
e 140 584
e 140 478
e 140 479
e 141 465
e 141 468
e 141 405
e 141 407
e 142 466
e 142 467
e 142 406
e 142 408
e 143 297
e 143 569
e 143 299
e 143 571
e 144 298
e 144 300
e 144 572
e 144 570
e 145 353
e 145 356
e 145 625
e 145 628
e 145 409
e 145 411
e 146 354
e 146 355
e 146 626
e 146 627
e 146 410
e 146 412
e 147 609
e 147 612
e 147 393
e 147 395
e 147 685
e 147 687
e 147 305
e 147 308
e 148 610
e 148 611
e 148 394
e 148 396
e 148 686
e 148 688
e 148 306
e 148 307
e 149 417
e 149 419
e 149 581
e 149 455
e 149 583
e 149 453
e 150 418
e 150 420
e 150 454
e 150 584
e 150 456
e 150 582
e 151 361
e 151 363
e 151 301
e 151 304
e 151 377
e 151 379
e 152 362
e 152 364
e 152 302
e 152 303
e 152 378
e 152 380
e 153 289
e 153 291
e 153 684
e 153 361
e 153 364
e 153 681
e 153 665
e 153 668
e 154 290
e 154 292
e 154 362
e 154 363
e 154 682
e 154 666
e 154 667
e 154 683
e 155 412
e 155 409
e 155 313
e 155 316
e 155 541
e 155 544
e 156 543
e 156 410
e 156 314
e 156 315
e 156 542
e 156 411
e 157 269
e 157 271
e 157 369
e 157 371
e 157 565
e 157 568
e 158 270
e 158 272
e 158 370
e 158 372
e 158 566
e 158 567
e 159 553
e 159 556
e 159 241
e 159 244
e 159 505
e 159 507
e 160 554
e 160 555
e 160 242
e 160 243
e 160 506
e 160 508
e 161 473
e 161 475
e 162 474
e 162 476
e 163 473
e 163 617
e 163 619
e 163 476
e 164 474
e 164 475
e 164 620
e 164 618
e 165 421
e 165 423
e 165 680
e 165 337
e 165 340
e 165 677
e 165 349
e 165 350
e 166 422
e 166 679
e 166 424
e 166 338
e 166 339
e 166 678
e 166 351
e 166 352
e 167 461
e 167 464
e 168 462
e 168 463
e 169 621
e 169 624
e 170 622
e 170 623
e 171 289
e 171 292
e 171 393
e 171 396
e 171 620
e 171 617
e 172 290
e 172 291
e 172 618
e 172 619
e 172 394
e 172 395
e 173 453
e 173 456
e 174 454
e 174 455
e 175 549
e 175 552
e 175 561
e 175 563
e 175 405
e 175 408
e 175 697
e 175 700
e 176 550
e 176 551
e 176 562
e 176 564
e 176 406
e 176 407
e 176 698
e 176 699
e 177 325
e 177 295
e 177 327
e 177 601
e 177 293
e 177 603
e 178 294
e 178 328
e 178 296
e 178 602
e 178 604
e 178 326
e 179 641
e 179 642
e 179 269
e 179 272
e 179 661
e 179 663
e 179 249
e 179 251
e 180 643
e 180 644
e 180 270
e 180 271
e 180 662
e 180 664
e 180 250
e 180 252
e 181 321
e 181 545
e 181 547
e 181 324
e 181 537
e 181 540
e 181 349
e 181 351
e 182 322
e 182 323
e 182 548
e 182 546
e 182 538
e 182 539
e 182 350
e 182 352
e 183 641
e 183 673
e 183 643
e 183 365
e 183 675
e 183 367
e 184 642
e 184 676
e 184 674
e 184 366
e 184 368
e 184 644
e 185 641
e 185 644
e 185 597
e 185 599
e 186 642
e 186 643
e 186 598
e 186 600
e 187 673
e 187 676
e 187 329
e 187 331
e 187 493
e 187 495
e 187 441
e 187 443
e 187 605
e 187 608
e 188 674
e 188 675
e 188 330
e 188 332
e 188 494
e 188 496
e 188 442
e 188 444
e 188 606
e 188 607
e 189 577
e 189 580
e 189 333
e 189 335
e 190 578
e 190 579
e 190 334
e 190 336
e 191 513
e 191 516
e 191 573
e 191 575
e 192 514
e 192 515
e 192 574
e 192 576
e 193 425
e 193 428
e 193 525
e 193 527
e 193 601
e 193 604
e 193 445
e 193 447
e 194 426
e 194 427
e 194 526
e 194 528
e 194 602
e 194 603
e 194 446
e 194 448
e 195 689
e 195 692
e 195 645
e 195 648
e 196 690
e 196 691
e 196 646
e 196 647
e 197 417
e 197 545
e 197 420
e 197 548
e 197 281
e 197 284
e 198 546
e 198 547
e 198 418
e 198 419
e 198 282
e 198 283
e 199 589
e 199 592
e 199 469
e 199 472
e 200 591
e 200 470
e 200 471
e 200 590
e 201 573
e 201 576
e 201 525
e 201 528
e 202 575
e 202 526
e 202 527
e 202 574
e 203 517
e 203 519
e 203 341
e 203 343
e 203 664
e 203 505
e 203 661
e 203 508
e 204 518
e 204 520
e 204 342
e 204 663
e 204 344
e 204 506
e 204 507
e 204 662
e 205 497
e 205 657
e 205 500
e 205 660
e 206 498
e 206 499
e 206 659
e 206 658
e 207 481
e 207 484
e 207 685
e 207 688
e 207 597
e 207 695
e 207 600
e 207 441
e 207 693
e 207 444
e 208 482
e 208 483
e 208 686
e 208 687
e 208 598
e 208 599
e 208 696
e 208 442
e 208 443
e 208 694
e 209 389
e 209 424
e 209 392
e 209 297
e 209 300
e 209 333
e 209 336
e 209 273
e 209 276
e 209 421
e 209 509
e 209 512
e 210 390
e 210 391
e 210 423
e 210 298
e 210 299
e 210 334
e 210 335
e 210 274
e 210 275
e 210 510
e 210 511
e 210 422
e 211 572
e 211 365
e 211 493
e 211 496
e 211 501
e 211 503
e 211 569
e 211 368
e 212 367
e 212 366
e 212 495
e 212 494
e 212 502
e 212 504
e 212 570
e 212 571
e 213 285
e 213 288
e 213 693
e 213 696
e 213 633
e 213 636
e 213 445
e 213 448
e 214 446
e 214 287
e 214 695
e 214 634
e 214 635
e 214 286
e 214 447
e 214 694
e 215 433
e 215 436
e 215 325
e 215 328
e 216 434
e 216 435
e 216 326
e 216 327
e 217 613
e 217 616
e 217 296
e 217 369
e 217 372
e 217 293
e 218 295
e 218 294
e 218 615
e 218 370
e 218 371
e 218 614
e 219 653
e 219 656
e 219 501
e 219 504
e 219 701
e 219 704
e 220 654
e 220 655
e 220 502
e 220 503
e 220 702
e 220 703
e 221 317
e 221 320
e 222 318
e 222 319
e 223 581
e 223 584
e 223 265
e 223 268
e 223 341
e 223 344
e 224 582
e 224 583
e 224 266
e 224 267
e 224 342
e 224 343
e 225 385
e 225 388
e 225 397
e 225 400
e 226 386
e 226 387
e 226 398
e 226 399
e 227 257
e 227 260
e 227 517
e 227 520
e 228 258
e 228 259
e 228 518
e 228 519
e 229 329
e 229 561
e 229 332
e 229 564
e 230 330
e 230 331
e 230 563
e 230 562
e 231 245
e 231 248
e 231 249
e 231 252
e 231 349
e 231 352
e 232 246
e 232 247
e 232 250
e 232 251
e 232 350
e 232 351
e 233 377
e 233 380
e 233 277
e 233 280
e 234 378
e 234 379
e 234 278
e 234 279
e 235 261
e 235 264
e 235 237
e 235 240
e 235 253
e 235 256
e 236 262
e 236 263
e 236 238
e 236 239
e 236 254
e 236 255